p cnf 856
-23 -228
-24 -231
-25 -234
-26 -237
-27 -240
-28 -243
-29 -246
-30 -249
-31 -252
-32 -255
-33 -258
-34 -261
-35 -264
-36 -267
-37 -270
-38 -273
-39 -276
-40 -279
-41 -282
-42 -285
-43 -288
-44 -291
-45 -293
-46 -295
-47 -297
-48 -299
-49 -301
-50 -303
-51 -305
-52 -307
-53 -309
-54 -311
-55 -313
-56 -315
-57 -317
-58 -319
-59 -321
-60 -323
-61 -325
-62 -327
-63 -329
-64 -331
-65 -333
-66 -335
-67 336
-68 -43
-68 44
43 -44 68
-69 43
-69 -44
-43 44 69
-70 -68
-70 -69
68 69 70
-71 -1
-71 -2
1 2 71
-72 -3
-72 -4
3 4 72
-73 -5
-73 -6
5 6 73
-74 -7
-74 -8
7 8 74
-75 -9
-75 -10
9 10 75
-76 -11
-76 -12
11 12 76
-77 -13
-77 -14
13 14 77
-78 -15
-78 -16
15 16 78
-79 -17
-79 -18
17 18 79
-80 -19
-80 -20
19 20 80
-81 -21
-81 -22
21 22 81
-82 71
-82 72
-71 -72 82
-83 73
-83 74
-73 -74 83
-84 75
-84 76
-75 -76 84
-85 77
-85 78
-77 -78 85
-86 79
-86 80
-79 -80 86
-87 82
-87 83
-82 -83 87
-88 84
-88 85
-84 -85 88
-89 81
-89 86
-81 -86 89
-90 87
-90 88
-87 -88 90
-91 89
-91 90
-89 -90 91
-92 -45
-92 -46
45 46 92
-93 -47
-93 -48
47 48 93
-94 -49
-94 -50
49 50 94
-95 -51
-95 -52
51 52 95
-96 -53
-96 -54
53 54 96
-97 -55
-97 -56
55 56 97
-98 -57
-98 -58
57 58 98
-99 -59
-99 -60
59 60 99
-100 -61
-100 -62
61 62 100
-101 -63
-101 -64
63 64 101
-102 -65
-102 -66
65 66 102
-103 92
-103 93
-92 -93 103
-104 94
-104 95
-94 -95 104
-105 96
-105 97
-96 -97 105
-106 98
-106 99
-98 -99 106
-107 100
-107 101
-100 -101 107
-108 103
-108 104
-103 -104 108
-109 105
-109 106
-105 -106 109
-110 102
-110 107
-102 -107 110
-111 108
-111 109
-108 -109 111
-112 110
-112 111
-110 -111 112
-113 45
-113 -70
-45 70 113
-114 -45
-114 70
45 -70 114
-115 -113
-115 -114
113 114 115
-116 23
-116 46
-23 -46 116
-117 -23
-117 -46
23 46 117
-118 -116
-118 -117
116 117 118
-119 24
-119 47
-24 -47 119
-120 -24
-120 -47
24 47 120
-121 -119
-121 -120
119 120 121
-122 25
-122 48
-25 -48 122
-123 -25
-123 -48
25 48 123
-124 -122
-124 -123
122 123 124
-125 26
-125 49
-26 -49 125
-126 -26
-126 -49
26 49 126
-127 -125
-127 -126
125 126 127
-128 27
-128 50
-27 -50 128
-129 -27
-129 -50
27 50 129
-130 -128
-130 -129
128 129 130
-131 28
-131 51
-28 -51 131
-132 -28
-132 -51
28 51 132
-133 -131
-133 -132
131 132 133
-134 29
-134 52
-29 -52 134
-135 -29
-135 -52
29 52 135
-136 -134
-136 -135
134 135 136
-137 30
-137 53
-30 -53 137
-138 -30
-138 -53
30 53 138
-139 -137
-139 -138
137 138 139
-140 31
-140 54
-31 -54 140
-141 -31
-141 -54
31 54 141
-142 -140
-142 -141
140 141 142
-143 32
-143 55
-32 -55 143
-144 -32
-144 -55
32 55 144
-145 -143
-145 -144
143 144 145
-146 33
-146 56
-33 -56 146
-147 -33
-147 -56
33 56 147
-148 -146
-148 -147
146 147 148
-149 34
-149 57
-34 -57 149
-150 -34
-150 -57
34 57 150
-151 -149
-151 -150
149 150 151
-152 35
-152 58
-35 -58 152
-153 -35
-153 -58
35 58 153
-154 -152
-154 -153
152 153 154
-155 36
-155 59
-36 -59 155
-156 -36
-156 -59
36 59 156
-157 -155
-157 -156
155 156 157
-158 37
-158 60
-37 -60 158
-159 -37
-159 -60
37 60 159
-160 -158
-160 -159
158 159 160
-161 38
-161 61
-38 -61 161
-162 -38
-162 -61
38 61 162
-163 -161
-163 -162
161 162 163
-164 39
-164 62
-39 -62 164
-165 -39
-165 -62
39 62 165
-166 -164
-166 -165
164 165 166
-167 40
-167 63
-40 -63 167
-168 -40
-168 -63
40 63 168
-169 -167
-169 -168
167 168 169
-170 41
-170 64
-41 -64 170
-171 -41
-171 -64
41 64 171
-172 -170
-172 -171
170 171 172
-173 42
-173 65
-42 -65 173
-174 -42
-174 -65
42 65 174
-175 -173
-175 -174
173 174 175
-176 43
-176 66
-43 -66 176
-177 -43
-177 -66
43 66 177
-178 -176
-178 -177
176 177 178
-179 -115
-179 -118
115 118 179
-180 -121
-180 -124
121 124 180
-181 -127
-181 -130
127 130 181
-182 -133
-182 -136
133 136 182
-183 -139
-183 -142
139 142 183
-184 -145
-184 -148
145 148 184
-185 -151
-185 -154
151 154 185
-186 -157
-186 -160
157 160 186
-187 -163
-187 -166
163 166 187
-188 -169
-188 -172
169 172 188
-189 -175
-189 -178
175 178 189
-190 179
-190 180
-179 -180 190
-191 181
-191 182
-181 -182 191
-192 183
-192 184
-183 -184 192
-193 185
-193 186
-185 -186 193
-194 187
-194 188
-187 -188 194
-195 190
-195 191
-190 -191 195
-196 192
-196 193
-192 -193 196
-197 189
-197 194
-189 -194 197
-198 195
-198 196
-195 -196 198
-199 197
-199 198
-197 -198 199
-200 -112
-200 199
112 -199 200
-201 67
-201 200
-67 -200 201
-202 91
-202 201
-91 -201 202
-203 -23
-203 70
23 -70 203
-204 -24
-204 -25
24 25 204
-205 -26
-205 -27
26 27 205
-206 -28
-206 -29
28 29 206
-207 -30
-207 -31
30 31 207
-208 -32
-208 -33
32 33 208
-209 -34
-209 -35
34 35 209
-210 -36
-210 -37
36 37 210
-211 -38
-211 -39
38 39 211
-212 -40
-212 -41
40 41 212
-213 -42
-213 -43
42 43 213
-214 203
-214 204
-203 -204 214
-215 205
-215 206
-205 -206 215
-216 207
-216 208
-207 -208 216
-217 209
-217 210
-209 -210 217
-218 211
-218 212
-211 -212 218
-219 214
-219 215
-214 -215 219
-220 216
-220 217
-216 -217 220
-221 213
-221 218
-213 -218 221
-222 219
-222 220
-219 -220 222
-223 221
-223 222
-221 -222 223
-224 -112
-224 223
112 -223 224
-225 91
-225 -200
-91 200 225
-226 1
-226 -91
-1 91 226
-227 -70
-227 91
70 -91 227
-228 -226
-228 -227
226 227 228
-229 2
-229 -91
-2 91 229
-230 23
-230 91
-23 -91 230
-231 -229
-231 -230
229 230 231
-232 3
-232 -91
-3 91 232
-233 24
-233 91
-24 -91 233
-234 -232
-234 -233
232 233 234
-235 4
-235 -91
-4 91 235
-236 25
-236 91
-25 -91 236
-237 -235
-237 -236
235 236 237
-238 5
-238 -91
-5 91 238
-239 26
-239 91
-26 -91 239
-240 -238
-240 -239
238 239 240
-241 6
-241 -91
-6 91 241
-242 27
-242 91
-27 -91 242
-243 -241
-243 -242
241 242 243
-244 7
-244 -91
-7 91 244
-245 28
-245 91
-28 -91 245
-246 -244
-246 -245
244 245 246
-247 8
-247 -91
-8 91 247
-248 29
-248 91
-29 -91 248
-249 -247
-249 -248
247 248 249
-250 9
-250 -91
-9 91 250
-251 30
-251 91
-30 -91 251
-252 -250
-252 -251
250 251 252
-253 10
-253 -91
-10 91 253
-254 31
-254 91
-31 -91 254
-255 -253
-255 -254
253 254 255
-256 11
-256 -91
-11 91 256
-257 32
-257 91
-32 -91 257
-258 -256
-258 -257
256 257 258
-259 12
-259 -91
-12 91 259
-260 33
-260 91
-33 -91 260
-261 -259
-261 -260
259 260 261
-262 13
-262 -91
-13 91 262
-263 34
-263 91
-34 -91 263
-264 -262
-264 -263
262 263 264
-265 14
-265 -91
-14 91 265
-266 35
-266 91
-35 -91 266
-267 -265
-267 -266
265 266 267
-268 15
-268 -91
-15 91 268
-269 36
-269 91
-36 -91 269
-270 -268
-270 -269
268 269 270
-271 16
-271 -91
-16 91 271
-272 37
-272 91
-37 -91 272
-273 -271
-273 -272
271 272 273
-274 17
-274 -91
-17 91 274
-275 38
-275 91
-38 -91 275
-276 -274
-276 -275
274 275 276
-277 18
-277 -91
-18 91 277
-278 39
-278 91
-39 -91 278
-279 -277
-279 -278
277 278 279
-280 19
-280 -91
-19 91 280
-281 40
-281 91
-40 -91 281
-282 -280
-282 -281
280 281 282
-283 20
-283 -91
-20 91 283
-284 41
-284 91
-41 -91 284
-285 -283
-285 -284
283 284 285
-286 21
-286 -91
-21 91 286
-287 42
-287 91
-42 -91 287
-288 -286
-288 -287
286 287 288
-289 22
-289 -91
-22 91 289
-290 43
-290 91
-43 -91 290
-291 -289
-291 -290
289 290 291
-292 45
-292 91
-45 -91 292
-293 -226
-293 -292
226 292 293
-294 46
-294 91
-46 -91 294
-295 -229
-295 -294
229 294 295
-296 47
-296 91
-47 -91 296
-297 -232
-297 -296
232 296 297
-298 48
-298 91
-48 -91 298
-299 -235
-299 -298
235 298 299
-300 49
-300 91
-49 -91 300
-301 -238
-301 -300
238 300 301
-302 50
-302 91
-50 -91 302
-303 -241
-303 -302
241 302 303
-304 51
-304 91
-51 -91 304
-305 -244
-305 -304
244 304 305
-306 52
-306 91
-52 -91 306
-307 -247
-307 -306
247 306 307
-308 53
-308 91
-53 -91 308
-309 -250
-309 -308
250 308 309
-310 54
-310 91
-54 -91 310
-311 -253
-311 -310
253 310 311
-312 55
-312 91
-55 -91 312
-313 -256
-313 -312
256 312 313
-314 56
-314 91
-56 -91 314
-315 -259
-315 -314
259 314 315
-316 57
-316 91
-57 -91 316
-317 -262
-317 -316
262 316 317
-318 58
-318 91
-58 -91 318
-319 -265
-319 -318
265 318 319
-320 59
-320 91
-59 -91 320
-321 -268
-321 -320
268 320 321
-322 60
-322 91
-60 -91 322
-323 -271
-323 -322
271 322 323
-324 61
-324 91
-61 -91 324
-325 -274
-325 -324
274 324 325
-326 62
-326 91
-62 -91 326
-327 -277
-327 -326
277 326 327
-328 63
-328 91
-63 -91 328
-329 -280
-329 -328
280 328 329
-330 64
-330 91
-64 -91 330
-331 -283
-331 -330
283 330 331
-332 65
-332 91
-65 -91 332
-333 -286
-333 -332
286 332 333
-334 66
-334 91
-66 -91 334
-335 -289
-335 -334
289 334 335
-336 -67
-336 225
67 -225 336
-337 -202
-337 -224
202 224 337
-337
